NAME : X-n129-k18
COMMENT : "Generated by Uchoa, Pecin, Pessoa, Poggi, Subramanian, and Vidal (2013)"
TYPE : CVRP
DIMENSION : 129
EDGE_WEIGHT_TYPE : EUC_2D
CAPACITY : 39
NODE_COORD_SECTION
1 0 0
2 51 570
3 691 985
4 66 119
5 502 415
6 434 289
7 427 584
8 342 576
9 790 87
10 312 475
11 908 531
12 840 566
13 863 232
14 284 833
15 515 175
16 9 243
17 768 209
18 777 582
19 84 508
20 380 523
21 255 267
22 544 961
23 408 661
24 57 588
25 278 44
26 168 722
27 726 406
28 223 385
29 495 70
30 560 632
31 235 655
32 643 127
33 765 267
34 459 976
35 585 962
36 154 796
37 650 444
38 931 52
39 377 19
40 178 633
41 917 803
42 871 677
43 667 164
44 208 651
45 35 437
46 503 680
47 462 870
48 322 123
49 677 829
50 878 407
51 223 251
52 671 94
53 218 351
54 375 220
55 367 567
56 986 869
57 236 769
58 202 998
59 761 712
60 75 520
61 14 737
62 895 632
63 224 725
64 328 387
65 36 300
66 817 531
67 31 283
68 209 574
69 490 395
70 659 121
71 410 207
72 761 450
73 768 348
74 873 349
75 439 179
76 51 269
77 886 558
78 151 752
79 208 186
80 897 547
81 469 396
82 607 437
83 202 433
84 642 100
85 180 703
86 873 595
87 103 184
88 466 416
89 124 311
90 71 321
91 8 357
92 51 200
93 899 471
94 67 236
95 482 432
96 991 388
97 933 309
98 649 131
99 497 404
100 626 195
101 807 375
102 776 626
103 624 275
104 55 288
105 877 515
106 821 533
107 456 317
108 625 410
109 783 403
110 662 97
111 733 533
112 499 470
113 766 340
114 206 385
115 822 285
116 571 304
117 934 461
118 533 242
119 442 24
120 303 249
121 675 92
122 467 432
123 575 338
124 385 239
125 272 512
126 567 124
127 738 447
128 379 165
129 610 408
PICKUP_AND_DELIVERY_SECTION
1 0 0 1000000000 0 0 0
2 0 0 1000000000 0 0 9
3 0 0 1000000000 0 0 8
4 0 0 1000000000 0 0 8
5 0 0 1000000000 0 0 4
6 0 0 1000000000 0 0 4
7 0 0 1000000000 0 0 3
8 0 0 1000000000 0 0 6
9 0 0 1000000000 0 0 10
10 0 0 1000000000 0 0 8
11 0 0 1000000000 0 8 0
12 0 0 1000000000 0 0 3
13 0 0 1000000000 0 0 2
14 0 0 1000000000 0 0 8
15 0 0 1000000000 0 0 4
16 0 0 1000000000 0 0 9
17 0 0 1000000000 0 0 4
18 0 0 1000000000 0 0 6
19 0 0 1000000000 0 0 5
20 0 0 1000000000 0 0 1
21 0 0 1000000000 0 2 0
22 0 0 1000000000 0 0 2
23 0 0 1000000000 0 0 4
24 0 0 1000000000 0 0 2
25 0 0 1000000000 0 0 3
26 0 0 1000000000 0 0 6
27 0 0 1000000000 0 0 7
28 0 0 1000000000 0 0 8
29 0 0 1000000000 0 0 9
30 0 0 1000000000 0 0 8
31 0 0 1000000000 0 7 0
32 0 0 1000000000 0 0 9
33 0 0 1000000000 0 0 5
34 0 0 1000000000 0 0 4
35 0 0 1000000000 0 0 8
36 0 0 1000000000 0 0 2
37 0 0 1000000000 0 0 8
38 0 0 1000000000 0 0 8
39 0 0 1000000000 0 0 9
40 0 0 1000000000 0 0 10
41 0 0 1000000000 0 9 0
42 0 0 1000000000 0 0 5
43 0 0 1000000000 0 0 1
44 0 0 1000000000 0 0 3
45 0 0 1000000000 0 0 10
46 0 0 1000000000 0 0 10
47 0 0 1000000000 0 0 2
48 0 0 1000000000 0 0 10
49 0 0 1000000000 0 0 4
50 0 0 1000000000 0 0 6
51 0 0 1000000000 0 7 0
52 0 0 1000000000 0 0 3
53 0 0 1000000000 0 0 7
54 0 0 1000000000 0 0 3
55 0 0 1000000000 0 0 3
56 0 0 1000000000 0 0 6
57 0 0 1000000000 0 0 5
58 0 0 1000000000 0 0 4
59 0 0 1000000000 0 0 1
60 0 0 1000000000 0 0 6
61 0 0 1000000000 0 10 0
62 0 0 1000000000 0 0 3
63 0 0 1000000000 0 0 5
64 0 0 1000000000 0 0 3
65 0 0 1000000000 0 0 1
66 0 0 1000000000 0 0 9
67 0 0 1000000000 0 0 2
68 0 0 1000000000 0 0 8
69 0 0 1000000000 0 0 9
70 0 0 1000000000 0 0 2
71 0 0 1000000000 0 4 0
72 0 0 1000000000 0 0 7
73 0 0 1000000000 0 0 10
74 0 0 1000000000 0 0 7
75 0 0 1000000000 0 0 1
76 0 0 1000000000 0 0 7
77 0 0 1000000000 0 0 1
78 0 0 1000000000 0 0 5
79 0 0 1000000000 0 0 4
80 0 0 1000000000 0 0 1
81 0 0 1000000000 0 5 0
82 0 0 1000000000 0 0 10
83 0 0 1000000000 0 0 10
84 0 0 1000000000 0 0 2
85 0 0 1000000000 0 0 4
86 0 0 1000000000 0 0 2
87 0 0 1000000000 0 0 2
88 0 0 1000000000 0 0 2
89 0 0 1000000000 0 0 6
90 0 0 1000000000 0 0 7
91 0 0 1000000000 0 6 0
92 0 0 1000000000 0 0 8
93 0 0 1000000000 0 0 3
94 0 0 1000000000 0 0 1
95 0 0 1000000000 0 0 2
96 0 0 1000000000 0 0 1
97 0 0 1000000000 0 0 9
98 0 0 1000000000 0 0 1
99 0 0 1000000000 0 0 6
100 0 0 1000000000 0 0 5
101 0 0 1000000000 0 6 0
102 0 0 1000000000 0 0 1
103 0 0 1000000000 0 0 1
104 0 0 1000000000 0 0 3
105 0 0 1000000000 0 0 7
106 0 0 1000000000 0 0 2
107 0 0 1000000000 0 0 4
108 0 0 1000000000 0 0 4
109 0 0 1000000000 0 0 4
110 0 0 1000000000 0 0 6
111 0 0 1000000000 0 2 0
112 0 0 1000000000 0 0 9
113 0 0 1000000000 0 0 9
114 0 0 1000000000 0 0 5
115 0 0 1000000000 0 0 1
116 0 0 1000000000 0 0 9
117 0 0 1000000000 0 0 1
118 0 0 1000000000 0 0 10
119 0 0 1000000000 0 0 4
120 0 0 1000000000 0 0 4
121 0 0 1000000000 0 10 0
122 0 0 1000000000 0 0 1
123 0 0 1000000000 0 0 6
124 0 0 1000000000 0 0 2
125 0 0 1000000000 0 0 9
126 0 0 1000000000 0 0 7
127 0 0 1000000000 0 0 1
128 0 0 1000000000 0 0 7
129 0 0 1000000000 0 0 3
